11
-1 12 57 55  1 91 84 26  6 60 29
 74 -1 20 57 27 53 36 77 14 60 77
 70 42 -1  4 16 95  2  1 22 48  8
 54 33 96 -1 65 54 97 70 77  2 95
 73 39 45 13 -1 31 38 35 12 24 96
 98 65 52 78 46 -1 20 22 11 23  9
 49 56 64 68 98 66 -1 52 91 35 99
 21  4 88  2 73  1 35 -1 78 38 85
 30 19 83 93 95 26 57 81 -1 72 35
 49 59 90 48 97 62 91 56  3 -1 70
 68  4 82 98 65 13 42 84 83 54 -1
 
 sum_min=149
